73
22
0 28 30 32 37 38 39 40 41 44 45 46 50 51 52 55 56 57 60 62 63 65 66 68 72
1 23 24 25 28 29 30 32 33 35 36 37 39 41 42 44 45 46 49 51 52 55 56 57 58 62 63 65 68 71 72
2 24 27 28 29 30 31 34 35 36 37 38 39 40 44 45 46 49 52 54 56 57 58 60 62 63 65 66 67 68 69 71 72
3 27 30 32 33 34 35 36 37 38 41 44 45 46 50 52 54 55 56 59 60 62 63 66 67 68 69 71 72
4 25 28 29 30 31 32 34 35 36 37 38 39 41 42 44 45 46 48 49 50 52 56 57 58 59 60 62 63 64 72
5 28 29 30 32 35 37 39 40 41 42 43 44 50 51 52 53 54 55 60 62 63 64 67 68 69 72
6 22 27 28 30 31 34 35 36 37 38 39 41 42 43 44 45 47 52 53 54 60 62 63 66 67 68 72
7 26 30 32 33 35 36 40 41 44 51 54 56 57 59 60 65 67 71
8 24 28 29 30 35 37 38 40 43 46 57 58 59 60 62 66 68 69 70 71 72
9 23 24 27 28 29 30 36 37 42 43 45 46 48 49 51 52 54 55 56 58 59 66 68 72
10 23 25 28 29 30 31 32 35 37 39 41 44 46 48 52 53 54 55 56 57 59 63 65 66 67 68 72
11 22 25 28 30 32 33 36 37 39 42 46 47 48 50 52 53 55 59 60 65 66 67 68 69 70
12 25 29 30 34 38 39 43 44 46 47 48 49 53 55 58 59 65 67 69
13 31 32 35 38 39 43 45 50 52 54 56 57 61 62 64 67 72
14 22 28 30 33 34 42 46 47 48 49 53 55 58 61 66 68 70 71
15 27 30 31 39 40 44 45 51 53 70 72
16 24 32 35 42 43 44 59 63 64 65 66 71
17 29 32 35 41 42 48 50 55 59 60 72
18 24 31 36 37 38 40 43 46 58
19 24 29 34 37 39 54 58 60 62 66
20 30 32 33
21 28 38 47
